\ENCODING=ISO-8859-1
\Problem name: ilog.cplex

Minimize
 obj: t(8)#0
Subject To
 c1:   t(0)#1  = 0
 c3:   t(1)#2 - 5.5 y(0)(1)#3 >= 0
 c5:   t(2)#4 - 4.2 y(0)(2)#5 >= 0
 c7:   t(3)#6 - 2.6 y(0)(3)#7 >= 0
 c9:   t(4)#8 - 2.4 y(0)(4)#9 >= 0
 c11:  t(5)#10 - 1.3 y(0)(5)#11 >= 0
 c13:  t(6)#12 - 2.5 y(0)(6)#13 >= 0
 c15:  t(7)#14 - 4.3 y(0)(7)#15 >= 0
 c17:  t(1)#2 - t(2)#4 + 1003.7 y(1)(2)#16 <= 1000
 c19:  t(1)#2 - t(3)#6 + 1002.1 y(1)(3)#17 <= 1000
 c21:  t(1)#2 - t(4)#8 + 1005.1 y(1)(4)#18 <= 1000
 c23:  t(1)#2 - t(5)#10 + 1006 y(1)(5)#19 <= 1000
 c25:  t(1)#2 - t(6)#12 + 1007.2 y(1)(6)#20 <= 1000
 c27:  t(1)#2 - t(7)#14 + 1009 y(1)(7)#21 <= 1000
 c29:  - t(1)#2 + t(2)#4 + 1004.5 y(2)(1)#22 <= 1000
 c31:  t(2)#4 - t(3)#6 + 1001.6 y(2)(3)#23 <= 1000
 c33:  t(2)#4 - t(4)#8 + 1003.2 y(2)(4)#24 <= 1000
 c35:  t(2)#4 - t(5)#10 + 1005.5 y(2)(5)#25 <= 1000
 c37:  t(2)#4 - t(6)#12 + 1006.7 y(2)(6)#26 <= 1000
 c39:  t(2)#4 - t(7)#14 + 1008.5 y(2)(7)#27 <= 1000
 c41:  - t(1)#2 + t(3)#6 + 1002.9 y(3)(1)#28 <= 1000
 c43:  - t(2)#4 + t(3)#6 + 1001.6 y(3)(2)#29 <= 1000
 c45:  t(3)#6 - t(4)#8 + 1003 y(3)(4)#30 <= 1000
 c47:  t(3)#6 - t(5)#10 + 1003.9 y(3)(5)#31 <= 1000
 c49:  t(3)#6 - t(6)#12 + 1005.1 y(3)(6)#32 <= 1000
 c51:  t(3)#6 - t(7)#14 + 1006.9 y(3)(7)#33 <= 1000
 c53:  - t(1)#2 + t(4)#8 + 1004.1 y(4)(1)#34 <= 1000
 c55:  - t(2)#4 + t(4)#8 + 1002.8 y(4)(2)#35 <= 1000
 c57:  - t(3)#6 + t(4)#8 + 1001.2 y(4)(3)#36 <= 1000
 c59:  t(4)#8 - t(5)#10 + 1005.1 y(4)(5)#37 <= 1000
 c61:  t(4)#8 - t(6)#12 + 1006.3 y(4)(6)#38 <= 1000
 c63:  t(4)#8 - t(7)#14 + 1008.1 y(4)(7)#39 <= 1000
 c65:  - t(1)#2 + t(5)#10 + 1007.4 y(5)(1)#40 <= 1000
 c67:  - t(2)#4 + t(5)#10 + 1006.1 y(5)(2)#41 <= 1000
 c69:  - t(3)#6 + t(5)#10 + 1004.5 y(5)(3)#42 <= 1000
 c71:  - t(4)#8 + t(5)#10 + 1003.3 y(5)(4)#43 <= 1000
 c73:  t(5)#10 - t(6)#12 + 1001.2 y(5)(6)#44 <= 1000
 c75:  t(5)#10 - t(7)#14 + 1003 y(5)(7)#45 <= 1000
 c77:  - t(1)#2 + t(6)#12 + 1007 y(6)(1)#46 <= 1000
 c79:  - t(2)#4 + t(6)#12 + 1005.7 y(6)(2)#47 <= 1000
 c81:  - t(3)#6 + t(6)#12 + 1004.1 y(6)(3)#48 <= 1000
 c83:  - t(4)#8 + t(6)#12 + 1002.9 y(6)(4)#49 <= 1000
 c85:  - t(5)#10 + t(6)#12 + 1001.2 y(6)(5)#50 <= 1000
 c87:  t(6)#12 - t(7)#14 + 1002.3 y(6)(7)#51 <= 1000
 c89:  - t(1)#2 + t(7)#14 + 1009.3 y(7)(1)#52 <= 1000
 c91:  - t(2)#4 + t(7)#14 + 1008 y(7)(2)#53 <= 1000
 c93:  - t(3)#6 + t(7)#14 + 1006.4 y(7)(3)#54 <= 1000
 c95:  - t(4)#8 + t(7)#14 + 1005.2 y(7)(4)#55 <= 1000
 c97:  - t(5)#10 + t(7)#14 + 1003 y(7)(5)#56 <= 1000
 c99:  - t(6)#12 + t(7)#14 + 1002.3 y(7)(6)#57 <= 1000
 c101: y(0)(1)#3 + y(2)(1)#22 + y(3)(1)#28 + y(4)(1)#34 + y(5)(1)#40
       + y(6)(1)#46 + y(7)(1)#52  = 1
 c103: y(0)(2)#5 + y(1)(2)#16 + y(3)(2)#29 + y(4)(2)#35 + y(5)(2)#41
       + y(6)(2)#47 + y(7)(2)#53  = 1
 c105: y(0)(3)#7 + y(1)(3)#17 + y(2)(3)#23 + y(4)(3)#36 + y(5)(3)#42
       + y(6)(3)#48 + y(7)(3)#54  = 1
 c107: y(0)(4)#9 + y(1)(4)#18 + y(2)(4)#24 + y(3)(4)#30 + y(5)(4)#43
       + y(6)(4)#49 + y(7)(4)#55  = 1
 c109: y(0)(5)#11 + y(1)(5)#19 + y(2)(5)#25 + y(3)(5)#31 + y(4)(5)#37
       + y(6)(5)#50 + y(7)(5)#56  = 1
 c111: y(0)(6)#13 + y(1)(6)#20 + y(2)(6)#26 + y(3)(6)#32 + y(4)(6)#38
       + y(5)(6)#44 + y(7)(6)#57  = 1
 c113: y(0)(7)#15 + y(1)(7)#21 + y(2)(7)#27 + y(3)(7)#33 + y(4)(7)#39
       + y(5)(7)#45 + y(6)(7)#51  = 1
 c115: y(1)(2)#16 + y(1)(3)#17 + y(1)(4)#18 + y(1)(5)#19 + y(1)(6)#20
       + y(1)(7)#21 + y(1)(0)#58  = 1
 c117: y(2)(1)#22 + y(2)(3)#23 + y(2)(4)#24 + y(2)(5)#25 + y(2)(6)#26
       + y(2)(7)#27 + y(2)(0)#59  = 1
 c119: y(3)(1)#28 + y(3)(2)#29 + y(3)(4)#30 + y(3)(5)#31 + y(3)(6)#32
       + y(3)(7)#33 + y(3)(0)#60  = 1
 c121: y(4)(1)#34 + y(4)(2)#35 + y(4)(3)#36 + y(4)(5)#37 + y(4)(6)#38
       + y(4)(7)#39 + y(4)(0)#61  = 1
 c123: y(5)(1)#40 + y(5)(2)#41 + y(5)(3)#42 + y(5)(4)#43 + y(5)(6)#44
       + y(5)(7)#45 + y(5)(0)#62  = 1
 c125: y(6)(1)#46 + y(6)(2)#47 + y(6)(3)#48 + y(6)(4)#49 + y(6)(5)#50
       + y(6)(7)#51 + y(6)(0)#63  = 1
 c127: y(7)(1)#52 + y(7)(2)#53 + y(7)(3)#54 + y(7)(4)#55 + y(7)(5)#56
       + y(7)(6)#57 + y(7)(0)#64  = 1
 c129: - t(8)#0 + t(1)#2 <= -4.7
 c131: - t(8)#0 + t(2)#4 <= -4.2
 c133: - t(8)#0 + t(3)#6 <= -2.6
 c135: - t(8)#0 + t(4)#8 <= -3.8
 c137: - t(8)#0 + t(5)#10 <= -3.9
 c139: - t(8)#0 + t(6)#12 <= -3.5
 c141: - t(8)#0 + t(7)#14 <= -5.8
 c143: t(1)#2 >= 0
 c145: t(2)#4 >= 0
 c147: t(3)#6 >= 0
 c149: t(4)#8 >= 0
 c151: t(5)#10 >= 0
 c153: t(6)#12 >= 0
 c155: t(7)#14 >= 0
 c157: t(1)#2 <= 1000
 c159: t(2)#4 <= 1000
 c161: t(3)#6 <= 1000
 c163: t(4)#8 <= 1000
 c165: t(5)#10 <= 1000
 c167: t(6)#12 <= 1000
 c169: t(7)#14 <= 1000
 c171: y(1)(0)#58 + y(2)(0)#59 + y(3)(0)#60 + y(4)(0)#61 + y(5)(0)#62
       + y(6)(0)#63 + y(7)(0)#64  = 1
 c173: y(0)(1)#3 + y(0)(2)#5 + y(0)(3)#7 + y(0)(4)#9 + y(0)(5)#11 + y(0)(6)#13
       + y(0)(7)#15  = 1
Bounds
 0 <= y(0)(1)#3 <= 1
 0 <= y(0)(2)#5 <= 1
 0 <= y(0)(3)#7 <= 1
 0 <= y(0)(4)#9 <= 1
 0 <= y(0)(5)#11 <= 1
 0 <= y(0)(6)#13 <= 1
 0 <= y(0)(7)#15 <= 1
 0 <= y(1)(2)#16 <= 1
 0 <= y(1)(3)#17 <= 1
 0 <= y(1)(4)#18 <= 1
 0 <= y(1)(5)#19 <= 1
 0 <= y(1)(6)#20 <= 1
 0 <= y(1)(7)#21 <= 1
 0 <= y(2)(1)#22 <= 1
 0 <= y(2)(3)#23 <= 1
 0 <= y(2)(4)#24 <= 1
 0 <= y(2)(5)#25 <= 1
 0 <= y(2)(6)#26 <= 1
 0 <= y(2)(7)#27 <= 1
 0 <= y(3)(1)#28 <= 1
 0 <= y(3)(2)#29 <= 1
 0 <= y(3)(4)#30 <= 1
 0 <= y(3)(5)#31 <= 1
 0 <= y(3)(6)#32 <= 1
 0 <= y(3)(7)#33 <= 1
 0 <= y(4)(1)#34 <= 1
 0 <= y(4)(2)#35 <= 1
 0 <= y(4)(3)#36 <= 1
 0 <= y(4)(5)#37 <= 1
 0 <= y(4)(6)#38 <= 1
 0 <= y(4)(7)#39 <= 1
 0 <= y(5)(1)#40 <= 1
 0 <= y(5)(2)#41 <= 1
 0 <= y(5)(3)#42 <= 1
 0 <= y(5)(4)#43 <= 1
 0 <= y(5)(6)#44 <= 1
 0 <= y(5)(7)#45 <= 1
 0 <= y(6)(1)#46 <= 1
 0 <= y(6)(2)#47 <= 1
 0 <= y(6)(3)#48 <= 1
 0 <= y(6)(4)#49 <= 1
 0 <= y(6)(5)#50 <= 1
 0 <= y(6)(7)#51 <= 1
 0 <= y(7)(1)#52 <= 1
 0 <= y(7)(2)#53 <= 1
 0 <= y(7)(3)#54 <= 1
 0 <= y(7)(4)#55 <= 1
 0 <= y(7)(5)#56 <= 1
 0 <= y(7)(6)#57 <= 1
 0 <= y(1)(0)#58 <= 1
 0 <= y(2)(0)#59 <= 1
 0 <= y(3)(0)#60 <= 1
 0 <= y(4)(0)#61 <= 1
 0 <= y(5)(0)#62 <= 1
 0 <= y(6)(0)#63 <= 1
 0 <= y(7)(0)#64 <= 1
Generals
 y(0)(1)#3  y(0)(2)#5  y(0)(3)#7  y(0)(4)#9  y(0)(5)#11  y(0)(6)#13 
 y(0)(7)#15  y(1)(2)#16  y(1)(3)#17  y(1)(4)#18  y(1)(5)#19  y(1)(6)#20 
 y(1)(7)#21  y(2)(1)#22  y(2)(3)#23  y(2)(4)#24  y(2)(5)#25  y(2)(6)#26 
 y(2)(7)#27  y(3)(1)#28  y(3)(2)#29  y(3)(4)#30  y(3)(5)#31  y(3)(6)#32 
 y(3)(7)#33  y(4)(1)#34  y(4)(2)#35  y(4)(3)#36  y(4)(5)#37  y(4)(6)#38 
 y(4)(7)#39  y(5)(1)#40  y(5)(2)#41  y(5)(3)#42  y(5)(4)#43  y(5)(6)#44 
 y(5)(7)#45  y(6)(1)#46  y(6)(2)#47  y(6)(3)#48  y(6)(4)#49  y(6)(5)#50 
 y(6)(7)#51  y(7)(1)#52  y(7)(2)#53  y(7)(3)#54  y(7)(4)#55  y(7)(5)#56 
 y(7)(6)#57  y(1)(0)#58  y(2)(0)#59  y(3)(0)#60  y(4)(0)#61  y(5)(0)#62 
 y(6)(0)#63  y(7)(0)#64 
End
